c graph colorability of graph:
c random_regular_graph(5, 98).
c
c Generated with `cnfgen`
c (C) 2012-2016 Massimo Lauria <lauria.massimo@gmail.com>
c https://massimolauria.github.io/cnfgen
c
p cnf 294 1127
1 2 3 0
-1 -2 0
-1 -3 0
-2 -3 0
4 5 6 0
-4 -5 0
-4 -6 0
-5 -6 0
7 8 9 0
-7 -8 0
-7 -9 0
-8 -9 0
10 11 12 0
-10 -11 0
-10 -12 0
-11 -12 0
13 14 15 0
-13 -14 0
-13 -15 0
-14 -15 0
16 17 18 0
-16 -17 0
-16 -18 0
-17 -18 0
19 20 21 0
-19 -20 0
-19 -21 0
-20 -21 0
22 23 24 0
-22 -23 0
-22 -24 0
-23 -24 0
25 26 27 0
-25 -26 0
-25 -27 0
-26 -27 0
28 29 30 0
-28 -29 0
-28 -30 0
-29 -30 0
31 32 33 0
-31 -32 0
-31 -33 0
-32 -33 0
34 35 36 0
-34 -35 0
-34 -36 0
-35 -36 0
37 38 39 0
-37 -38 0
-37 -39 0
-38 -39 0
40 41 42 0
-40 -41 0
-40 -42 0
-41 -42 0
43 44 45 0
-43 -44 0
-43 -45 0
-44 -45 0
46 47 48 0
-46 -47 0
-46 -48 0
-47 -48 0
49 50 51 0
-49 -50 0
-49 -51 0
-50 -51 0
52 53 54 0
-52 -53 0
-52 -54 0
-53 -54 0
55 56 57 0
-55 -56 0
-55 -57 0
-56 -57 0
58 59 60 0
-58 -59 0
-58 -60 0
-59 -60 0
61 62 63 0
-61 -62 0
-61 -63 0
-62 -63 0
64 65 66 0
-64 -65 0
-64 -66 0
-65 -66 0
67 68 69 0
-67 -68 0
-67 -69 0
-68 -69 0
70 71 72 0
-70 -71 0
-70 -72 0
-71 -72 0
73 74 75 0
-73 -74 0
-73 -75 0
-74 -75 0
76 77 78 0
-76 -77 0
-76 -78 0
-77 -78 0
79 80 81 0
-79 -80 0
-79 -81 0
-80 -81 0
82 83 84 0
-82 -83 0
-82 -84 0
-83 -84 0
85 86 87 0
-85 -86 0
-85 -87 0
-86 -87 0
88 89 90 0
-88 -89 0
-88 -90 0
-89 -90 0
91 92 93 0
-91 -92 0
-91 -93 0
-92 -93 0
94 95 96 0
-94 -95 0
-94 -96 0
-95 -96 0
97 98 99 0
-97 -98 0
-97 -99 0
-98 -99 0
100 101 102 0
-100 -101 0
-100 -102 0
-101 -102 0
103 104 105 0
-103 -104 0
-103 -105 0
-104 -105 0
106 107 108 0
-106 -107 0
-106 -108 0
-107 -108 0
109 110 111 0
-109 -110 0
-109 -111 0
-110 -111 0
112 113 114 0
-112 -113 0
-112 -114 0
-113 -114 0
115 116 117 0
-115 -116 0
-115 -117 0
-116 -117 0
118 119 120 0
-118 -119 0
-118 -120 0
-119 -120 0
121 122 123 0
-121 -122 0
-121 -123 0
-122 -123 0
124 125 126 0
-124 -125 0
-124 -126 0
-125 -126 0
127 128 129 0
-127 -128 0
-127 -129 0
-128 -129 0
130 131 132 0
-130 -131 0
-130 -132 0
-131 -132 0
133 134 135 0
-133 -134 0
-133 -135 0
-134 -135 0
136 137 138 0
-136 -137 0
-136 -138 0
-137 -138 0
139 140 141 0
-139 -140 0
-139 -141 0
-140 -141 0
142 143 144 0
-142 -143 0
-142 -144 0
-143 -144 0
145 146 147 0
-145 -146 0
-145 -147 0
-146 -147 0
148 149 150 0
-148 -149 0
-148 -150 0
-149 -150 0
151 152 153 0
-151 -152 0
-151 -153 0
-152 -153 0
154 155 156 0
-154 -155 0
-154 -156 0
-155 -156 0
157 158 159 0
-157 -158 0
-157 -159 0
-158 -159 0
160 161 162 0
-160 -161 0
-160 -162 0
-161 -162 0
163 164 165 0
-163 -164 0
-163 -165 0
-164 -165 0
166 167 168 0
-166 -167 0
-166 -168 0
-167 -168 0
169 170 171 0
-169 -170 0
-169 -171 0
-170 -171 0
172 173 174 0
-172 -173 0
-172 -174 0
-173 -174 0
175 176 177 0
-175 -176 0
-175 -177 0
-176 -177 0
178 179 180 0
-178 -179 0
-178 -180 0
-179 -180 0
181 182 183 0
-181 -182 0
-181 -183 0
-182 -183 0
184 185 186 0
-184 -185 0
-184 -186 0
-185 -186 0
187 188 189 0
-187 -188 0
-187 -189 0
-188 -189 0
190 191 192 0
-190 -191 0
-190 -192 0
-191 -192 0
193 194 195 0
-193 -194 0
-193 -195 0
-194 -195 0
196 197 198 0
-196 -197 0
-196 -198 0
-197 -198 0
199 200 201 0
-199 -200 0
-199 -201 0
-200 -201 0
202 203 204 0
-202 -203 0
-202 -204 0
-203 -204 0
205 206 207 0
-205 -206 0
-205 -207 0
-206 -207 0
208 209 210 0
-208 -209 0
-208 -210 0
-209 -210 0
211 212 213 0
-211 -212 0
-211 -213 0
-212 -213 0
214 215 216 0
-214 -215 0
-214 -216 0
-215 -216 0
217 218 219 0
-217 -218 0
-217 -219 0
-218 -219 0
220 221 222 0
-220 -221 0
-220 -222 0
-221 -222 0
223 224 225 0
-223 -224 0
-223 -225 0
-224 -225 0
226 227 228 0
-226 -227 0
-226 -228 0
-227 -228 0
229 230 231 0
-229 -230 0
-229 -231 0
-230 -231 0
232 233 234 0
-232 -233 0
-232 -234 0
-233 -234 0
235 236 237 0
-235 -236 0
-235 -237 0
-236 -237 0
238 239 240 0
-238 -239 0
-238 -240 0
-239 -240 0
241 242 243 0
-241 -242 0
-241 -243 0
-242 -243 0
244 245 246 0
-244 -245 0
-244 -246 0
-245 -246 0
247 248 249 0
-247 -248 0
-247 -249 0
-248 -249 0
250 251 252 0
-250 -251 0
-250 -252 0
-251 -252 0
253 254 255 0
-253 -254 0
-253 -255 0
-254 -255 0
256 257 258 0
-256 -257 0
-256 -258 0
-257 -258 0
259 260 261 0
-259 -260 0
-259 -261 0
-260 -261 0
262 263 264 0
-262 -263 0
-262 -264 0
-263 -264 0
265 266 267 0
-265 -266 0
-265 -267 0
-266 -267 0
268 269 270 0
-268 -269 0
-268 -270 0
-269 -270 0
271 272 273 0
-271 -272 0
-271 -273 0
-272 -273 0
274 275 276 0
-274 -275 0
-274 -276 0
-275 -276 0
277 278 279 0
-277 -278 0
-277 -279 0
-278 -279 0
280 281 282 0
-280 -281 0
-280 -282 0
-281 -282 0
283 284 285 0
-283 -284 0
-283 -285 0
-284 -285 0
286 287 288 0
-286 -287 0
-286 -288 0
-287 -288 0
289 290 291 0
-289 -290 0
-289 -291 0
-290 -291 0
292 293 294 0
-292 -293 0
-292 -294 0
-293 -294 0
-1 -103 0
-2 -104 0
-3 -105 0
-1 -130 0
-2 -131 0
-3 -132 0
-1 -154 0
-2 -155 0
-3 -156 0
-1 -187 0
-2 -188 0
-3 -189 0
-1 -244 0
-2 -245 0
-3 -246 0
-4 -40 0
-5 -41 0
-6 -42 0
-4 -142 0
-5 -143 0
-6 -144 0
-4 -151 0
-5 -152 0
-6 -153 0
-4 -196 0
-5 -197 0
-6 -198 0
-4 -202 0
-5 -203 0
-6 -204 0
-7 -22 0
-8 -23 0
-9 -24 0
-7 -73 0
-8 -74 0
-9 -75 0
-7 -178 0
-8 -179 0
-9 -180 0
-7 -181 0
-8 -182 0
-9 -183 0
-7 -292 0
-8 -293 0
-9 -294 0
-10 -97 0
-11 -98 0
-12 -99 0
-10 -184 0
-11 -185 0
-12 -186 0
-10 -190 0
-11 -191 0
-12 -192 0
-10 -217 0
-11 -218 0
-12 -219 0
-10 -259 0
-11 -260 0
-12 -261 0
-13 -82 0
-14 -83 0
-15 -84 0
-13 -121 0
-14 -122 0
-15 -123 0
-13 -256 0
-14 -257 0
-15 -258 0
-13 -277 0
-14 -278 0
-15 -279 0
-13 -280 0
-14 -281 0
-15 -282 0
-16 -160 0
-17 -161 0
-18 -162 0
-16 -178 0
-17 -179 0
-18 -180 0
-16 -214 0
-17 -215 0
-18 -216 0
-16 -244 0
-17 -245 0
-18 -246 0
-16 -265 0
-17 -266 0
-18 -267 0
-19 -121 0
-20 -122 0
-21 -123 0
-19 -166 0
-20 -167 0
-21 -168 0
-19 -205 0
-20 -206 0
-21 -207 0
-19 -283 0
-20 -284 0
-21 -285 0
-19 -286 0
-20 -287 0
-21 -288 0
-22 -37 0
-23 -38 0
-24 -39 0
-22 -67 0
-23 -68 0
-24 -69 0
-22 -91 0
-23 -92 0
-24 -93 0
-22 -283 0
-23 -284 0
-24 -285 0
-25 -73 0
-26 -74 0
-27 -75 0
-25 -115 0
-26 -116 0
-27 -117 0
-25 -142 0
-26 -143 0
-27 -144 0
-25 -148 0
-26 -149 0
-27 -150 0
-25 -226 0
-26 -227 0
-27 -228 0
-28 -46 0
-29 -47 0
-30 -48 0
-28 -52 0
-29 -53 0
-30 -54 0
-28 -79 0
-29 -80 0
-30 -81 0
-28 -205 0
-29 -206 0
-30 -207 0
-28 -259 0
-29 -260 0
-30 -261 0
-31 -103 0
-32 -104 0
-33 -105 0
-31 -124 0
-32 -125 0
-33 -126 0
-31 -151 0
-32 -152 0
-33 -153 0
-31 -208 0
-32 -209 0
-33 -210 0
-31 -259 0
-32 -260 0
-33 -261 0
-34 -97 0
-35 -98 0
-36 -99 0
-34 -118 0
-35 -119 0
-36 -120 0
-34 -229 0
-35 -230 0
-36 -231 0
-34 -232 0
-35 -233 0
-36 -234 0
-34 -262 0
-35 -263 0
-36 -264 0
-37 -136 0
-38 -137 0
-39 -138 0
-37 -139 0
-38 -140 0
-39 -141 0
-37 -235 0
-38 -236 0
-39 -237 0
-37 -268 0
-38 -269 0
-39 -270 0
-40 -124 0
-41 -125 0
-42 -126 0
-40 -226 0
-41 -227 0
-42 -228 0
-40 -241 0
-41 -242 0
-42 -243 0
-40 -268 0
-41 -269 0
-42 -270 0
-43 -82 0
-44 -83 0
-45 -84 0
-43 -160 0
-44 -161 0
-45 -162 0
-43 -175 0
-44 -176 0
-45 -177 0
-43 -229 0
-44 -230 0
-45 -231 0
-43 -274 0
-44 -275 0
-45 -276 0
-46 -178 0
-47 -179 0
-48 -180 0
-46 -238 0
-47 -239 0
-48 -240 0
-46 -280 0
-47 -281 0
-48 -282 0
-46 -289 0
-47 -290 0
-48 -291 0
-49 -67 0
-50 -68 0
-51 -69 0
-49 -97 0
-50 -98 0
-51 -99 0
-49 -154 0
-50 -155 0
-51 -156 0
-49 -229 0
-50 -230 0
-51 -231 0
-49 -283 0
-50 -284 0
-51 -285 0
-52 -58 0
-53 -59 0
-54 -60 0
-52 -139 0
-53 -140 0
-54 -141 0
-52 -184 0
-53 -185 0
-54 -186 0
-52 -250 0
-53 -251 0
-54 -252 0
-55 -61 0
-56 -62 0
-57 -63 0
-55 -160 0
-56 -161 0
-57 -162 0
-55 -166 0
-56 -167 0
-57 -168 0
-55 -199 0
-56 -200 0
-57 -201 0
-55 -271 0
-56 -272 0
-57 -273 0
-58 -70 0
-59 -71 0
-60 -72 0
-58 -76 0
-59 -77 0
-60 -78 0
-58 -127 0
-59 -128 0
-60 -129 0
-58 -175 0
-59 -176 0
-60 -177 0
-61 -67 0
-62 -68 0
-63 -69 0
-61 -73 0
-62 -74 0
-63 -75 0
-61 -271 0
-62 -272 0
-63 -273 0
-61 -289 0
-62 -290 0
-63 -291 0
-64 -112 0
-65 -113 0
-66 -114 0
-64 -148 0
-65 -149 0
-66 -150 0
-64 -175 0
-65 -176 0
-66 -177 0
-64 -220 0
-65 -221 0
-66 -222 0
-64 -268 0
-65 -269 0
-66 -270 0
-67 -133 0
-68 -134 0
-69 -135 0
-67 -256 0
-68 -257 0
-69 -258 0
-70 -76 0
-71 -77 0
-72 -78 0
-70 -88 0
-71 -89 0
-72 -90 0
-70 -265 0
-71 -266 0
-72 -267 0
-70 -292 0
-71 -293 0
-72 -294 0
-73 -256 0
-74 -257 0
-75 -258 0
-73 -286 0
-74 -287 0
-75 -288 0
-76 -115 0
-77 -116 0
-78 -117 0
-76 -169 0
-77 -170 0
-78 -171 0
-76 -244 0
-77 -245 0
-78 -246 0
-79 -85 0
-80 -86 0
-81 -87 0
-79 -160 0
-80 -161 0
-81 -162 0
-79 -241 0
-80 -242 0
-81 -243 0
-79 -247 0
-80 -248 0
-81 -249 0
-82 -196 0
-83 -197 0
-84 -198 0
-82 -232 0
-83 -233 0
-84 -234 0
-82 -247 0
-83 -248 0
-84 -249 0
-85 -112 0
-86 -113 0
-87 -114 0
-85 -145 0
-86 -146 0
-87 -147 0
-85 -193 0
-86 -194 0
-87 -195 0
-85 -217 0
-86 -218 0
-87 -219 0
-88 -163 0
-89 -164 0
-90 -165 0
-88 -178 0
-89 -179 0
-90 -180 0
-88 -214 0
-89 -215 0
-90 -216 0
-88 -238 0
-89 -239 0
-90 -240 0
-91 -112 0
-92 -113 0
-93 -114 0
-91 -157 0
-92 -158 0
-93 -159 0
-91 -166 0
-92 -167 0
-93 -168 0
-91 -226 0
-92 -227 0
-93 -228 0
-94 -115 0
-95 -116 0
-96 -117 0
-94 -157 0
-95 -158 0
-96 -159 0
-94 -181 0
-95 -182 0
-96 -183 0
-94 -199 0
-95 -200 0
-96 -201 0
-94 -289 0
-95 -290 0
-96 -291 0
-97 -130 0
-98 -131 0
-99 -132 0
-97 -277 0
-98 -278 0
-99 -279 0
-100 -130 0
-101 -131 0
-102 -132 0
-100 -148 0
-101 -149 0
-102 -150 0
-100 -190 0
-101 -191 0
-102 -192 0
-100 -208 0
-101 -209 0
-102 -210 0
-100 -253 0
-101 -254 0
-102 -255 0
-103 -121 0
-104 -122 0
-105 -123 0
-103 -139 0
-104 -140 0
-105 -141 0
-103 -181 0
-104 -182 0
-105 -183 0
-106 -145 0
-107 -146 0
-108 -147 0
-106 -148 0
-107 -149 0
-108 -150 0
-106 -172 0
-107 -173 0
-108 -174 0
-106 -223 0
-107 -224 0
-108 -225 0
-106 -232 0
-107 -233 0
-108 -234 0
-109 -172 0
-110 -173 0
-111 -174 0
-109 -193 0
-110 -194 0
-111 -195 0
-109 -238 0
-110 -239 0
-111 -240 0
-109 -271 0
-110 -272 0
-111 -273 0
-109 -289 0
-110 -290 0
-111 -291 0
-112 -163 0
-113 -164 0
-114 -165 0
-112 -256 0
-113 -257 0
-114 -258 0
-115 -241 0
-116 -242 0
-117 -243 0
-115 -274 0
-116 -275 0
-117 -276 0
-118 -133 0
-119 -134 0
-120 -135 0
-118 -157 0
-119 -158 0
-120 -159 0
-118 -253 0
-119 -254 0
-120 -255 0
-118 -262 0
-119 -263 0
-120 -264 0
-121 -151 0
-122 -152 0
-123 -153 0
-121 -199 0
-122 -200 0
-123 -201 0
-124 -217 0
-125 -218 0
-126 -219 0
-124 -220 0
-125 -221 0
-126 -222 0
-124 -283 0
-125 -284 0
-126 -285 0
-127 -133 0
-128 -134 0
-129 -135 0
-127 -136 0
-128 -137 0
-129 -138 0
-127 -151 0
-128 -152 0
-129 -153 0
-127 -259 0
-128 -260 0
-129 -261 0
-130 -133 0
-131 -134 0
-132 -135 0
-130 -280 0
-131 -281 0
-132 -282 0
-133 -283 0
-134 -284 0
-135 -285 0
-136 -184 0
-137 -185 0
-138 -186 0
-136 -205 0
-137 -206 0
-138 -207 0
-136 -265 0
-137 -266 0
-138 -267 0
-139 -223 0
-140 -224 0
-141 -225 0
-139 -241 0
-140 -242 0
-141 -243 0
-142 -163 0
-143 -164 0
-144 -165 0
-142 -166 0
-143 -167 0
-144 -168 0
-142 -247 0
-143 -248 0
-144 -249 0
-145 -154 0
-146 -155 0
-147 -156 0
-145 -163 0
-146 -164 0
-147 -165 0
-145 -205 0
-146 -206 0
-147 -207 0
-148 -226 0
-149 -227 0
-150 -228 0
-151 -208 0
-152 -209 0
-153 -210 0
-154 -235 0
-155 -236 0
-156 -237 0
-154 -253 0
-155 -254 0
-156 -255 0
-157 -187 0
-158 -188 0
-159 -189 0
-157 -211 0
-158 -212 0
-159 -213 0
-160 -175 0
-161 -176 0
-162 -177 0
-163 -169 0
-164 -170 0
-165 -171 0
-166 -229 0
-167 -230 0
-168 -231 0
-169 -214 0
-170 -215 0
-171 -216 0
-169 -220 0
-170 -221 0
-171 -222 0
-169 -289 0
-170 -290 0
-171 -291 0
-172 -178 0
-173 -179 0
-174 -180 0
-172 -199 0
-173 -200 0
-174 -201 0
-172 -220 0
-173 -221 0
-174 -222 0
-175 -232 0
-176 -233 0
-177 -234 0
-181 -187 0
-182 -188 0
-183 -189 0
-181 -259 0
-182 -260 0
-183 -261 0
-184 -190 0
-185 -191 0
-186 -192 0
-184 -274 0
-185 -275 0
-186 -276 0
-187 -196 0
-188 -197 0
-189 -198 0
-187 -277 0
-188 -278 0
-189 -279 0
-190 -217 0
-191 -218 0
-192 -219 0
-190 -253 0
-191 -254 0
-192 -255 0
-193 -196 0
-194 -197 0
-195 -198 0
-193 -271 0
-194 -272 0
-195 -273 0
-193 -286 0
-194 -287 0
-195 -288 0
-196 -292 0
-197 -293 0
-198 -294 0
-199 -286 0
-200 -287 0
-201 -288 0
-202 -223 0
-203 -224 0
-204 -225 0
-202 -250 0
-203 -251 0
-204 -252 0
-202 -271 0
-203 -272 0
-204 -273 0
-202 -277 0
-203 -278 0
-204 -279 0
-205 -214 0
-206 -215 0
-207 -216 0
-208 -211 0
-209 -212 0
-210 -213 0
-208 -235 0
-209 -236 0
-210 -237 0
-211 -232 0
-212 -233 0
-213 -234 0
-211 -241 0
-212 -242 0
-213 -243 0
-211 -292 0
-212 -293 0
-213 -294 0
-214 -265 0
-215 -266 0
-216 -267 0
-217 -226 0
-218 -227 0
-219 -228 0
-220 -250 0
-221 -251 0
-222 -252 0
-223 -229 0
-224 -230 0
-225 -231 0
-223 -244 0
-224 -245 0
-225 -246 0
-235 -262 0
-236 -263 0
-237 -264 0
-235 -280 0
-236 -281 0
-237 -282 0
-238 -256 0
-239 -257 0
-240 -258 0
-238 -274 0
-239 -275 0
-240 -276 0
-244 -265 0
-245 -266 0
-246 -267 0
-247 -250 0
-248 -251 0
-249 -252 0
-247 -268 0
-248 -269 0
-249 -270 0
-250 -292 0
-251 -293 0
-252 -294 0
-253 -274 0
-254 -275 0
-255 -276 0
-262 -280 0
-263 -281 0
-264 -282 0
-262 -286 0
-263 -287 0
-264 -288 0
-268 -277 0
-269 -278 0
-270 -279 0
